Optimal - objective value 20287.32000000
      5 x0_6                   1                   51.08
      7 x0_8                   1         -22.0699999999992
     12 x1_5                   1                    8.42
     16 x2_0                   1         97.3799999999992
     24 x3_0                   1         58.8299999999992
     34 x4_2                   1                       0
     46 x5_7                   1                       0
     51 x6_3                   1                       0
     60 x7_4                   1                       0
     65 x8_1                   1         -68.5899999999995
     72 u1       7.99999999999999                       0
     73 u2                    20                       0
     74 u3                     6                       0
     75 u4                    18                       0
     76 u5                    11                       0
     77 u6                     2                       0
     78 u7                    15                       0
     79 u8                     4                       0
